WARNING: for repeatability, setting FPU to use double precision
============================[ Problem Statistics ]=============================
|                                                                             |
|  Number of variables:        195626                                         |
|  Number of clauses:          441080                                         |
|  Parse time:                   0.15 s                                       |
|                                                                             |
============================[ Search Statistics ]==============================
| Conflicts |          ORIGINAL         |          LEARNT          | Progress |
|           |    Vars  Clauses Literals |    Limit  Clauses Lit/Cl |          |
===============================================================================
|       100 |  105646   420493   946832 |   154180      100     38 | 45.996 % |
|       250 |  105646   420493   946832 |   169598      250     37 | 45.996 % |
|       475 |  105646   420493   946832 |   186558      475     54 | 45.996 % |
|       812 |  105646   420493   946832 |   205214      812     67 | 45.996 % |
|      1318 |  105646   420493   946832 |   225736     1318     56 | 45.996 % |
|      2077 |  105646   420493   946832 |   248309     2077     51 | 45.996 % |
===============================================================================
restarts              : 15
conflicts             : 2941           (1588 /sec)
decisions             : 25967          (0.00 % random) (14020 /sec)
propagations          : 10450368       (5642397 /sec)
conflict literals     : 159020         (7.85 % deleted)
Memory used           : 51.00 MB
CPU time              : 1.85211 s

SATISFIABLE
